NAME : ftv35Preorder.957.tour
COMMENT : Length = 957
COMMENT : Found by LKH [Keld Helsgaun] Sun Apr 19 19:25:39 2020
TYPE : TOUR
DIMENSION : 36
TOUR_SECTION
1
14
13
7
8
6
35
9
10
12
15
16
17
26
25
18
11
34
19
20
21
22
23
24
28
29
30
32
36
3
5
33
31
27
2
4
-1
EOF
